nNurses = 74;
nHours = 39;
minHours = 3;
maxHours = 20;
maxConsec = 16;
maxPresence = 16;
demand = [6, 11, 14, 9, 12, 11, 10, 12, 8, 13, 15, 17, 16, 14, 16, 17, 19, 19, 24, 23, 21, 23, 24, 22, 23, 20, 19, 21, 20, 20, 15, 19, 19, 17, 12, 16, 16, 11, 12];
